* Problem:    helloworld
* Class:      LP
* Rows:       3
* Columns:    2
* Non-zeros:  6
* Format:     Fixed MPS
*
NAME          hellowor
ROWS
 L  R0000001
 L  R0000002
 N  R0000003
COLUMNS
    x         R0000001             1   R0000002             3
    x         R0000003             1
    y         R0000001             2   R0000002             1
    y         R0000003             1
RHS
    RHS1      R0000001            15   R0000002            20
ENDATA
